(declare-const X String)
; \d{3}-\d{6}
(assert (not (str.in_re X (re.++ ((_ re.loop 3 3) (re.range "0" "9")) (str.to_re "-") ((_ re.loop 6 6) (re.range "0" "9")) (str.to_re "\u{a}")))))
; Subject\u{3A}\swww\u{2E}searchwords\u{2E}com
(assert (str.in_re X (re.++ (str.to_re "Subject:") (re.union (str.to_re " ") (str.to_re "\u{9}") (str.to_re "\u{a}") (str.to_re "\u{c}") (str.to_re "\u{d}")) (str.to_re "www.searchwords.com\u{a}"))))
; (^\d*\.?\d*[0-9]+\d*$)|(^[0-9]+\d*\.\d*$)
(assert (not (str.in_re X (re.union (re.++ (re.* (re.range "0" "9")) (re.opt (str.to_re ".")) (re.* (re.range "0" "9")) (re.+ (re.range "0" "9")) (re.* (re.range "0" "9"))) (re.++ (str.to_re "\u{a}") (re.+ (re.range "0" "9")) (re.* (re.range "0" "9")) (str.to_re ".") (re.* (re.range "0" "9")))))))
(check-sat)
